solution status: optimal solution found
objective value:                                   35
x30                                                 1 	(obj:1)
x31                                                 1 	(obj:1)
x32                                                 1 	(obj:1)
x36                                                 1 	(obj:1)
x37                                                 1 	(obj:1)
x38                                                 1 	(obj:1)
x39                                                 1 	(obj:1)
x40                                                 1 	(obj:1)
x42                                                 1 	(obj:1)
x44                                                 1 	(obj:1)
x46                                                 1 	(obj:1)
x48                                                 1 	(obj:1)
x50                                                 1 	(obj:1)
x51                                                 1 	(obj:1)
x53                                                 1 	(obj:1)
x58                                                 1 	(obj:1)
x60                                                 1 	(obj:1)
x63                                                 1 	(obj:1)
x65                                                 1 	(obj:1)
x73                                                 1 	(obj:1)
x74                                                 1 	(obj:1)
x75                                                 1 	(obj:1)
x77                                                 1 	(obj:1)
x80                                                 1 	(obj:1)
x82                                                 1 	(obj:1)
x83                                                 1 	(obj:1)
x84                                                 1 	(obj:1)
x86                                                 1 	(obj:1)
x87                                                 1 	(obj:1)
x89                                                 1 	(obj:1)
x91                                                 1 	(obj:1)
x92                                                 1 	(obj:1)
x93                                                 1 	(obj:1)
x94                                                 1 	(obj:1)
x96                                                 1 	(obj:1)
one.thingy.devices[2].thingy.v8_y                   13 	(obj:0)
one.thingy.devices[2].thingy.v8_z                   18 	(obj:0)
one.thingy.devices[2].thingy.v9_y                   15 	(obj:0)
one.thingy.devices[2].thingy.v9_z                   16 	(obj:0)
one.ctrl_s[2].flush_y                              14 	(obj:0)
one.ctrl_s[2].flush_z                              10 	(obj:0)
one.thingy.devices[0].thingy.v7_y                    7 	(obj:0)
one.thingy.devices[0].thingy.v7_z                   18 	(obj:0)
one.thingy.devices[1].thingy.v7_y                   11 	(obj:0)
one.thingy.devices[1].thingy.v7_z                   20 	(obj:0)
one.thingy.devices[1].thingy.v8_y                   11 	(obj:0)
one.thingy.devices[1].thingy.v8_z                   22 	(obj:0)
one.thingy.devices[3].thingy.v9_y                   18 	(obj:0)
one.thingy.devices[3].thingy.v9_z                   14 	(obj:0)
one.thingy.devices[1].thingy.v9_y                   11 	(obj:0)
one.thingy.devices[1].thingy.v9_z                   19 	(obj:0)
one.thingy.devices[2].thingy.v7_y                   14 	(obj:0)
one.thingy.devices[2].thingy.v7_z                   18 	(obj:0)
one.ctrl_s[2].hole_y                                3 	(obj:0)
one.ctrl_s[2].hole_z                               14 	(obj:0)
one.thingy.devices[0].thingy.v8_y                    8 	(obj:0)
one.thingy.devices[0].thingy.v8_z                   18 	(obj:0)
one.thingy.devices[3].thingy.v8_y                   12 	(obj:0)
one.thingy.devices[3].thingy.v8_z                   14 	(obj:0)
one.thingy.devices[3].thingy.v7_y                   15 	(obj:0)
one.thingy.devices[3].thingy.v7_z                   14 	(obj:0)
one.thingy.devices[0].thingy.v9_y                    7 	(obj:0)
one.thingy.devices[0].thingy.v9_z                   16 	(obj:0)
